analyze/results_flowersnark/final_miplib_symretope_if_extended_generating_set_cpx_v802__settings_final_nopeek_norelabel_extend_norestarts__4__square37.mps.gz.sol
solution status: optimal solution found
objective value:                                   15
x_1_1_10                                            1 	(obj:1)
x_1_11_6                                            1 	(obj:1)
x_1_17_5                                            1 	(obj:1)
x_1_22_16                                           1 	(obj:1)
x_6_17_1                                            1 	(obj:1)
x_6_18_4                                            1 	(obj:1)
x_7_11_4                                            1 	(obj:1)
x_7_15_3                                            1 	(obj:1)
x_10_15_7                                           1 	(obj:1)
x_11_1_11                                           1 	(obj:1)
x_11_12_3                                           1 	(obj:1)
x_14_12_3                                           1 	(obj:1)
x_17_12_5                           0.999999999999991 	(obj:1)
x_17_17_21                          0.999999999999991 	(obj:1)
x_22_1_16                           0.999999999999994 	(obj:1)
y_21                                0.999999999999991 	(obj:0)
y_16                                 1.99999999999999 	(obj:0)
y_11                                                1 	(obj:0)
y_10                                                1 	(obj:0)
y_7                                                 1 	(obj:0)
y_6                                                 1 	(obj:0)
y_5                                  1.99999999999999 	(obj:0)
y_4                                                 2 	(obj:0)
y_3                                                 3 	(obj:0)
y_1                                                 1 	(obj:0)
